instances/shortest_path/discrete/shortest_path_6_15.lp
\ Model nohadani_6_15
\ LP format - for model browsing. Use MPS format to capture full model detail.
\ Signature: 0x9d6f60db6d04e09d
Minimize
  32.14031735997639 y[0,1] + 48.10405388322278 y[0,2]
   + 51.73973328110612 y[0,4] + 44.28317965096906 y[0,5]
   + 32.14031735997639 y[1,0] + 36.12478373637688 y[1,2]
   + 37.65634076752546 y[1,4] + 48.10405388322278 y[2,0]
   + 36.12478373637688 y[2,1] + 50.53711507397311 y[2,3]
   + 4.123105625617661 y[2,4] + 31.95309061734092 y[2,5]
   + 50.53711507397311 y[3,2] + 51.62363799656123 y[3,4]
   + 34.71310991541957 y[3,5] + 51.73973328110612 y[4,0]
   + 37.65634076752546 y[4,1] + 4.123105625617661 y[4,2]
   + 51.62363799656123 y[4,3] + 35.4400902933387 y[4,5]
   + 44.28317965096906 y[5,0] + 31.95309061734092 y[5,2]
   + 34.71310991541957 y[5,3] + 35.4400902933387 y[5,4] + x[0,1] + x[0,2]
   + x[0,4] + x[0,5] + x[1,0] + x[1,2] + x[1,4] + x[2,0] + x[2,1] + x[2,3]
   + x[2,4] + x[2,5] + x[3,2] + x[3,4] + x[3,5] + x[4,0] + x[4,1] + x[4,2]
   + x[4,3] + x[4,5] + x[5,0] + x[5,2] + x[5,3] + x[5,4]
   + 3.21403173599764 r[0,1] + 4.810405388322278 r[0,2]
   + 5.173973328110613 r[0,4] + 4.428317965096906 r[0,5]
   + 3.21403173599764 r[1,0] + 3.612478373637689 r[1,2]
   + 3.765634076752546 r[1,4] + 4.810405388322278 r[2,0]
   + 3.612478373637689 r[2,1] + 5.053711507397312 r[2,3]
   + 0.4123105625617661 r[2,4] + 3.195309061734092 r[2,5]
   + 5.053711507397312 r[3,2] + 5.162363799656124 r[3,4]
   + 3.471310991541957 r[3,5] + 5.173973328110613 r[4,0]
   + 3.765634076752546 r[4,1] + 0.4123105625617661 r[4,2]
   + 5.162363799656124 r[4,3] + 3.54400902933387 r[4,5]
   + 4.428317965096906 r[5,0] + 3.195309061734092 r[5,2]
   + 3.471310991541957 r[5,3] + 3.54400902933387 r[5,4]
Subject To
 flow_cons_inner_nodes[0]: - y[0,1] - y[0,2] - y[0,4] - y[0,5] + y[1,0]
   + y[2,0] + y[4,0] + y[5,0] = 0
 flow_cons_inner_nodes[2]: y[0,2] + y[1,2] - y[2,0] - y[2,1] - y[2,3]
   - y[2,4] - y[2,5] + y[3,2] + y[4,2] + y[5,2] = 0
 flow_cons_inner_nodes[4]: y[0,4] + y[1,4] + y[2,4] + y[3,4] - y[4,0]
   - y[4,1] - y[4,2] - y[4,3] - y[4,5] + y[5,4] = 0
 flow_cons_inner_nodes[5]: y[0,5] + y[2,5] + y[3,5] + y[4,5] - y[5,0]
   - y[5,2] - y[5,3] - y[5,4] = 0
 flow_cons_source: - y[0,1] + y[1,0] + y[1,2] + y[1,4] - y[2,1] - y[4,1]
   = 1
 flow_cons_target: y[2,3] - y[3,2] - y[3,4] - y[3,5] + y[4,3] + y[5,3] = 1
 primal_lower: 2.618863450242986 x[0,1] + 4.510952795749452 x[0,2]
   + 4.557961531631625 x[0,4] + 4.106370749986278 x[0,5]
   + 2.829403338472328 x[1,0] + 4.505382466082597 x[1,2]
   + 1.71579026890853 x[1,4] + 3.942482599291517 x[2,0]
   + 3.406541287952144 x[2,1] + 2.268809167085485 x[2,3]
   + 1.394946660293373 x[2,4] + 2.824944309590503 x[2,5]
   + 0.5114396916585253 x[3,2] + 2.818292381999489 x[3,4]
   + 3.701504482296635 x[3,5] + 5.044790024358081 x[4,0]
   + 3.361008286126171 x[4,1] + 1.674001354468439 x[4,2]
   + 1.651362667206112 x[4,3] + 0.8738750435223246 x[4,5]
   + 4.881928207140678 x[5,0] + 4.045047984569712 x[5,2]
   + 2.980173344327266 x[5,3] + 3.010610747614522 x[5,4] + 84 u[0,1]
   + 69 u[0,2] + 95 u[0,4] + 96 u[0,5] + 45 u[1,0] + 46 u[1,2] + 22 u[1,4]
   + 24 u[2,0] + 94 u[2,1] + 39 u[2,3] + 100 u[2,4] + 52 u[2,5] + 69 u[3,2]
   + 97 u[3,4] + 69 u[3,5] + 25 u[4,0] + 50 u[4,1] + 17 u[4,2] + 82 u[4,3]
   + 55 u[4,5] + 94 u[5,0] + 40 u[5,2] + 57 u[5,3] + 31 u[5,4] <= 132
 mccormick1[0,1]: - u[0,1] + r[0,1] <= 0
 mccormick1[0,2]: - u[0,2] + r[0,2] <= 0
 mccormick1[0,4]: - u[0,4] + r[0,4] <= 0
 mccormick1[0,5]: - u[0,5] + r[0,5] <= 0
 mccormick1[1,0]: - u[1,0] + r[1,0] <= 0
 mccormick1[1,2]: - u[1,2] + r[1,2] <= 0
 mccormick1[1,4]: - u[1,4] + r[1,4] <= 0
 mccormick1[2,0]: - u[2,0] + r[2,0] <= 0
 mccormick1[2,1]: - u[2,1] + r[2,1] <= 0
 mccormick1[2,3]: - u[2,3] + r[2,3] <= 0
 mccormick1[2,4]: - u[2,4] + r[2,4] <= 0
 mccormick1[2,5]: - u[2,5] + r[2,5] <= 0
 mccormick1[3,2]: - u[3,2] + r[3,2] <= 0
 mccormick1[3,4]: - u[3,4] + r[3,4] <= 0
 mccormick1[3,5]: - u[3,5] + r[3,5] <= 0
 mccormick1[4,0]: - u[4,0] + r[4,0] <= 0
 mccormick1[4,1]: - u[4,1] + r[4,1] <= 0
 mccormick1[4,2]: - u[4,2] + r[4,2] <= 0
 mccormick1[4,3]: - u[4,3] + r[4,3] <= 0
 mccormick1[4,5]: - u[4,5] + r[4,5] <= 0
 mccormick1[5,0]: - u[5,0] + r[5,0] <= 0
 mccormick1[5,2]: - u[5,2] + r[5,2] <= 0
 mccormick1[5,3]: - u[5,3] + r[5,3] <= 0
 mccormick1[5,4]: - u[5,4] + r[5,4] <= 0
 mccormick2[0,1]: - y[0,1] + r[0,1] <= 0
 mccormick2[0,2]: - y[0,2] + r[0,2] <= 0
 mccormick2[0,4]: - y[0,4] + r[0,4] <= 0
 mccormick2[0,5]: - y[0,5] + r[0,5] <= 0
 mccormick2[1,0]: - y[1,0] + r[1,0] <= 0
 mccormick2[1,2]: - y[1,2] + r[1,2] <= 0
 mccormick2[1,4]: - y[1,4] + r[1,4] <= 0
 mccormick2[2,0]: - y[2,0] + r[2,0] <= 0
 mccormick2[2,1]: - y[2,1] + r[2,1] <= 0
 mccormick2[2,3]: - y[2,3] + r[2,3] <= 0
 mccormick2[2,4]: - y[2,4] + r[2,4] <= 0
 mccormick2[2,5]: - y[2,5] + r[2,5] <= 0
 mccormick2[3,2]: - y[3,2] + r[3,2] <= 0
 mccormick2[3,4]: - y[3,4] + r[3,4] <= 0
 mccormick2[3,5]: - y[3,5] + r[3,5] <= 0
 mccormick2[4,0]: - y[4,0] + r[4,0] <= 0
 mccormick2[4,1]: - y[4,1] + r[4,1] <= 0
 mccormick2[4,2]: - y[4,2] + r[4,2] <= 0
 mccormick2[4,3]: - y[4,3] + r[4,3] <= 0
 mccormick2[4,5]: - y[4,5] + r[4,5] <= 0
 mccormick2[5,0]: - y[5,0] + r[5,0] <= 0
 mccormick2[5,2]: - y[5,2] + r[5,2] <= 0
 mccormick2[5,3]: - y[5,3] + r[5,3] <= 0
 mccormick2[5,4]: - y[5,4] + r[5,4] <= 0
 mccormick3[0,1]: - y[0,1] - u[0,1] + r[0,1] >= -1
 mccormick3[0,2]: - y[0,2] - u[0,2] + r[0,2] >= -1
 mccormick3[0,4]: - y[0,4] - u[0,4] + r[0,4] >= -1
 mccormick3[0,5]: - y[0,5] - u[0,5] + r[0,5] >= -1
 mccormick3[1,0]: - y[1,0] - u[1,0] + r[1,0] >= -1
 mccormick3[1,2]: - y[1,2] - u[1,2] + r[1,2] >= -1
 mccormick3[1,4]: - y[1,4] - u[1,4] + r[1,4] >= -1
 mccormick3[2,0]: - y[2,0] - u[2,0] + r[2,0] >= -1
 mccormick3[2,1]: - y[2,1] - u[2,1] + r[2,1] >= -1
 mccormick3[2,3]: - y[2,3] - u[2,3] + r[2,3] >= -1
 mccormick3[2,4]: - y[2,4] - u[2,4] + r[2,4] >= -1
 mccormick3[2,5]: - y[2,5] - u[2,5] + r[2,5] >= -1
 mccormick3[3,2]: - y[3,2] - u[3,2] + r[3,2] >= -1
 mccormick3[3,4]: - y[3,4] - u[3,4] + r[3,4] >= -1
 mccormick3[3,5]: - y[3,5] - u[3,5] + r[3,5] >= -1
 mccormick3[4,0]: - y[4,0] - u[4,0] + r[4,0] >= -1
 mccormick3[4,1]: - y[4,1] - u[4,1] + r[4,1] >= -1
 mccormick3[4,2]: - y[4,2] - u[4,2] + r[4,2] >= -1
 mccormick3[4,3]: - y[4,3] - u[4,3] + r[4,3] >= -1
 mccormick3[4,5]: - y[4,5] - u[4,5] + r[4,5] >= -1
 mccormick3[5,0]: - y[5,0] - u[5,0] + r[5,0] >= -1
 mccormick3[5,2]: - y[5,2] - u[5,2] + r[5,2] >= -1
 mccormick3[5,3]: - y[5,3] - u[5,3] + r[5,3] >= -1
 mccormick3[5,4]: - y[5,4] - u[5,4] + r[5,4] >= -1
Bounds
Binaries
 y[0,1] y[0,2] y[0,4] y[0,5] y[1,0] y[1,2] y[1,4] y[2,0] y[2,1] y[2,3]
 y[2,4] y[2,5] y[3,2] y[3,4] y[3,5] y[4,0] y[4,1] y[4,2] y[4,3] y[4,5]
 y[5,0] y[5,2] y[5,3] y[5,4] x[0,1] x[0,2] x[0,4] x[0,5] x[1,0] x[1,2]
 x[1,4] x[2,0] x[2,1] x[2,3] x[2,4] x[2,5] x[3,2] x[3,4] x[3,5] x[4,0]
 x[4,1] x[4,2] x[4,3] x[4,5] x[5,0] x[5,2] x[5,3] x[5,4] u[0,1] u[0,2]
 u[0,4] u[0,5] u[1,0] u[1,2] u[1,4] u[2,0] u[2,1] u[2,3] u[2,4] u[2,5]
 u[3,2] u[3,4] u[3,5] u[4,0] u[4,1] u[4,2] u[4,3] u[4,5] u[5,0] u[5,2]
 u[5,3] u[5,4] r[0,1] r[0,2] r[0,4] r[0,5] r[1,0] r[1,2] r[1,4] r[2,0]
 r[2,1] r[2,3] r[2,4] r[2,5] r[3,2] r[3,4] r[3,5] r[4,0] r[4,1] r[4,2]
 r[4,3] r[4,5] r[5,0] r[5,2] r[5,3] r[5,4]
End
