instances/shortest_path/discrete/shortest_path_6_15.kp
54439
132

[2.618863450242986 4.510952795749452 4.557961531631625 4.106370749986278 2.8294033384723285 4.5053824660825965 1.71579026890853 3.9424825992915173 3.4065412879521437 2.268809167085485 1.3949466602933727 2.824944309590503 0.5114396916585253 2.8182923819994885 3.7015044822966354 5.044790024358081 3.361008286126171 1.6740013544684391 1.6513626672061117 0.8738750435223246 4.881928207140678 4.045047984569712 2.9801733443272664 3.0106107476145216]

[84 69 95 96 45 46 22 24 94 39 100 52 69 97 69 25 50 17 82 55 94 40 57 31]
